p cnf 24 192
-1 -5 2 0
-1 -5 6 0
-1 -9 3 0
-1 -9 10 0
-1 -5 2 0
-1 -5 6 0
-1 -9 3 0
-1 -9 10 0
-5 -9 7 0
-5 -9 11 0
-5 -9 7 0
-5 -9 11 0
-1 -13 2 0
-1 -13 14 0
-1 -17 3 0
-1 -17 18 0
-5 -13 6 0
-5 -13 14 0
-9 -17 10 0
-9 -17 18 0
-5 -21 7 0
-5 -21 22 0
-9 -21 11 0
-9 -21 22 0
-1 -13 2 0
-1 -13 14 0
-1 -17 3 0
-1 -17 18 0
-5 -13 6 0
-5 -13 14 0
-9 -17 10 0
-9 -17 18 0
-5 -21 7 0
-5 -21 22 0
-9 -21 11 0
-9 -21 22 0
-13 -17 15 0
-13 -17 19 0
-13 -17 15 0
-13 -17 19 0
-13 -21 15 0
-13 -21 23 0
-17 -21 19 0
-17 -21 23 0
-13 -21 15 0
-13 -21 23 0
-17 -21 19 0
-17 -21 23 0
-1 -6 2 0
-1 -6 5 0
-1 -10 3 0
-1 -10 9 0
-2 -5 1 0
-2 -5 6 0
-3 -9 1 0
-3 -9 10 0
-5 -11 7 0
-5 -11 9 0
-7 -9 5 0
-7 -9 11 0
-1 -14 2 0
-1 -14 13 0
-1 -18 3 0
-1 -18 17 0
-5 -14 6 0
-5 -14 13 0
-9 -18 10 0
-9 -18 17 0
-5 -22 7 0
-5 -22 21 0
-9 -22 11 0
-9 -22 21 0
-2 -13 1 0
-2 -13 14 0
-3 -17 1 0
-3 -17 18 0
-6 -13 5 0
-6 -13 14 0
-10 -17 9 0
-10 -17 18 0
-7 -21 5 0
-7 -21 22 0
-11 -21 9 0
-11 -21 22 0
-13 -19 15 0
-13 -19 17 0
-15 -17 13 0
-15 -17 19 0
-13 -23 15 0
-13 -23 21 0
-17 -23 19 0
-17 -23 21 0
-15 -21 13 0
-15 -21 23 0
-19 -21 17 0
-19 -21 23 0
-2 -11 4 0
-2 -11 12 0
-3 -7 4 0
-3 -7 8 0
-6 -10 8 0
-6 -10 12 0
-6 -10 8 0
-6 -10 12 0
-3 -7 4 0
-3 -7 8 0
-2 -11 4 0
-2 -11 12 0
-2 -19 4 0
-2 -19 20 0
-3 -15 4 0
-3 -15 16 0
-6 -23 8 0
-6 -23 24 0
-10 -23 12 0
-10 -23 24 0
-7 -15 8 0
-7 -15 16 0
-11 -19 12 0
-11 -19 20 0
-14 -18 16 0
-14 -18 20 0
-14 -18 16 0
-14 -18 20 0
-14 -22 16 0
-14 -22 24 0
-18 -22 20 0
-18 -22 24 0
-14 -22 16 0
-14 -22 24 0
-18 -22 20 0
-18 -22 24 0
-3 -15 4 0
-3 -15 16 0
-2 -19 4 0
-2 -19 20 0
-7 -15 8 0
-7 -15 16 0
-11 -19 12 0
-11 -19 20 0
-6 -23 8 0
-6 -23 24 0
-10 -23 12 0
-10 -23 24 0
-2 -12 4 0
-2 -12 11 0
-3 -8 4 0
-3 -8 7 0
-6 -12 8 0
-6 -12 10 0
-8 -10 6 0
-8 -10 12 0
-4 -7 3 0
-4 -7 8 0
-4 -11 2 0
-4 -11 12 0
-2 -20 4 0
-2 -20 19 0
-3 -16 4 0
-3 -16 15 0
-6 -24 8 0
-6 -24 23 0
-10 -24 12 0
-10 -24 23 0
-7 -16 8 0
-7 -16 15 0
-11 -20 12 0
-11 -20 19 0
-14 -20 16 0
-14 -20 18 0
-16 -18 14 0
-16 -18 20 0
-14 -24 16 0
-14 -24 22 0
-18 -24 20 0
-18 -24 22 0
-16 -22 14 0
-16 -22 24 0
-20 -22 18 0
-20 -22 24 0
-4 -15 3 0
-4 -15 16 0
-4 -19 2 0
-4 -19 20 0
-8 -15 7 0
-8 -15 16 0
-12 -19 11 0
-12 -19 20 0
-8 -23 6 0
-8 -23 24 0
-12 -23 10 0
-12 -23 24 0
